
;this file is automatically generated: Mon Oct 04 22:33:07 IST 2021

;declarations generated

(declare-fun oclExcludes ( Int Int) Bool)
(declare-fun Cardinality ( Int) Int)
(declare-fun class14_Class14IntAttr4 ( Int) Int)
(declare-fun type_1e60d46f_616f_4188_8ab4_19ac34caf9be_Class4 ( Int) Bool)
(declare-fun type_1e60d46f_616f_4188_8ab4_19ac34caf9be_Class5 ( Int) Bool)
(declare-fun type_1e60d46f_616f_4188_8ab4_19ac34caf9be_Class2 ( Int) Bool)
(declare-fun type_1e60d46f_616f_4188_8ab4_19ac34caf9be_Class3 ( Int) Bool)
(declare-fun type_1e60d46f_616f_4188_8ab4_19ac34caf9be_Class8 ( Int) Bool)
(declare-fun type_1e60d46f_616f_4188_8ab4_19ac34caf9be_Class9 ( Int) Bool)
(declare-fun type_1e60d46f_616f_4188_8ab4_19ac34caf9be_Class6 ( Int) Bool)
(declare-fun type_1e60d46f_616f_4188_8ab4_19ac34caf9be_Class7 ( Int) Bool)
(declare-fun type_1e60d46f_616f_4188_8ab4_19ac34caf9be_Class30 ( Int) Bool)
(declare-fun type_1e60d46f_616f_4188_8ab4_19ac34caf9be_Class27 ( Int) Bool)
(declare-fun type_1e60d46f_616f_4188_8ab4_19ac34caf9be_Class26 ( Int) Bool)
(declare-fun type_1e60d46f_616f_4188_8ab4_19ac34caf9be_Class25 ( Int) Bool)
(declare-fun type_1e60d46f_616f_4188_8ab4_19ac34caf9be_Class24 ( Int) Bool)
(declare-fun type_1e60d46f_616f_4188_8ab4_19ac34caf9be_Class23 ( Int) Bool)
(declare-fun type_1e60d46f_616f_4188_8ab4_19ac34caf9be_Class22 ( Int) Bool)
(declare-fun type_1e60d46f_616f_4188_8ab4_19ac34caf9be_Class21 ( Int) Bool)
(declare-fun type_1e60d46f_616f_4188_8ab4_19ac34caf9be_Class20 ( Int) Bool)
(declare-fun type_1e60d46f_616f_4188_8ab4_19ac34caf9be_Class0 ( Int) Bool)
(declare-fun type_1e60d46f_616f_4188_8ab4_19ac34caf9be_Class1 ( Int) Bool)
(declare-fun type_1e60d46f_616f_4188_8ab4_19ac34caf9be_Class29 ( Int) Bool)
(declare-fun type_1e60d46f_616f_4188_8ab4_19ac34caf9be_Class28 ( Int) Bool)
(declare-fun type_1e60d46f_616f_4188_8ab4_19ac34caf9be_Class41 ( Int) Bool)
(declare-fun type_1e60d46f_616f_4188_8ab4_19ac34caf9be_Class40 ( Int) Bool)
(declare-fun type_1e60d46f_616f_4188_8ab4_19ac34caf9be_Class38 ( Int) Bool)
(declare-fun type_1e60d46f_616f_4188_8ab4_19ac34caf9be_Class37 ( Int) Bool)
(declare-fun type_1e60d46f_616f_4188_8ab4_19ac34caf9be_Class36 ( Int) Bool)
(declare-fun type_1e60d46f_616f_4188_8ab4_19ac34caf9be_Class35 ( Int) Bool)
(declare-fun type_1e60d46f_616f_4188_8ab4_19ac34caf9be_Class34 ( Int) Bool)
(declare-fun type_1e60d46f_616f_4188_8ab4_19ac34caf9be_Class33 ( Int) Bool)
(declare-fun type_1e60d46f_616f_4188_8ab4_19ac34caf9be_Class32 ( Int) Bool)
(declare-fun type_1e60d46f_616f_4188_8ab4_19ac34caf9be_Class31 ( Int) Bool)
(declare-fun type_1e60d46f_616f_4188_8ab4_19ac34caf9be_Class39 ( Int) Bool)
(declare-fun type_1e60d46f_616f_4188_8ab4_19ac34caf9be_Class16 ( Int) Bool)
(declare-fun type_1e60d46f_616f_4188_8ab4_19ac34caf9be_Class15 ( Int) Bool)
(declare-fun type_1e60d46f_616f_4188_8ab4_19ac34caf9be_Class14 ( Int) Bool)
(declare-fun type_1e60d46f_616f_4188_8ab4_19ac34caf9be_Class13 ( Int) Bool)
(declare-fun type_1e60d46f_616f_4188_8ab4_19ac34caf9be_Class12 ( Int) Bool)
(declare-fun type_1e60d46f_616f_4188_8ab4_19ac34caf9be_Class11 ( Int) Bool)
(declare-fun type_1e60d46f_616f_4188_8ab4_19ac34caf9be_Class10 ( Int) Bool)
(declare-fun type_1e60d46f_616f_4188_8ab4_19ac34caf9be_Class19 ( Int) Bool)
(declare-fun type_1e60d46f_616f_4188_8ab4_19ac34caf9be_Class18 ( Int) Bool)
(declare-fun type_1e60d46f_616f_4188_8ab4_19ac34caf9be_Class17 ( Int) Bool)
(declare-fun type_1e60d46f_616f_4188_8ab4_19ac34caf9be_Class52 ( Int) Bool)
(declare-fun type_1e60d46f_616f_4188_8ab4_19ac34caf9be_Class51 ( Int) Bool)
(declare-fun type_1e60d46f_616f_4188_8ab4_19ac34caf9be_Class50 ( Int) Bool)
(declare-fun type_1e60d46f_616f_4188_8ab4_19ac34caf9be_Class49 ( Int) Bool)
(declare-fun type_1e60d46f_616f_4188_8ab4_19ac34caf9be_Class48 ( Int) Bool)
(declare-fun type_1e60d46f_616f_4188_8ab4_19ac34caf9be_Class47 ( Int) Bool)
(declare-fun type_1e60d46f_616f_4188_8ab4_19ac34caf9be_Class46 ( Int) Bool)
(declare-fun type_1e60d46f_616f_4188_8ab4_19ac34caf9be_Class45 ( Int) Bool)
(declare-fun type_1e60d46f_616f_4188_8ab4_19ac34caf9be_Class44 ( Int) Bool)
(declare-fun type_1e60d46f_616f_4188_8ab4_19ac34caf9be_Class43 ( Int) Bool)
(declare-fun type_1e60d46f_616f_4188_8ab4_19ac34caf9be_Class42 ( Int) Bool)
(declare-fun type_1e60d46f_616f_4188_8ab4_19ac34caf9be_Class55 ( Int) Bool)
(declare-fun type_1e60d46f_616f_4188_8ab4_19ac34caf9be_Class54 ( Int) Bool)
(declare-fun type_1e60d46f_616f_4188_8ab4_19ac34caf9be_Class53 ( Int) Bool)
(declare-fun oclSelect ( Int Bool) Int)
(declare-fun obj_2ff4cf09_9410_4392_80c2_9fb44edaedf9 ( Int) Int)
(declare-fun Enum0 ( Int) Int)
(declare-fun Enum1 ( Int) Int)
(declare-fun Enum2 ( Int) Int)
(declare-fun container_ ( Int) Int)
(declare-fun oclIncludes ( Int Int) Bool)
(declare-fun ObjAt ( Int Int) Int)

;formula(s) generated
(assert (! (forall ((v Int)) (=> (and (and (and (and (and (and (and (and (and ( type_1e60d46f_616f_4188_8ab4_19ac34caf9be_Class14 v )  ( type_1e60d46f_616f_4188_8ab4_19ac34caf9be_Class45 v ) ) ( type_1e60d46f_616f_4188_8ab4_19ac34caf9be_Class12 v ) ) ( type_1e60d46f_616f_4188_8ab4_19ac34caf9be_Class55 v ) ) ( type_1e60d46f_616f_4188_8ab4_19ac34caf9be_Class33 v ) ) ( type_1e60d46f_616f_4188_8ab4_19ac34caf9be_Class22 v ) ) ( type_1e60d46f_616f_4188_8ab4_19ac34caf9be_Class29 v ) ) ( type_1e60d46f_616f_4188_8ab4_19ac34caf9be_Class39 v ) ) ( type_1e60d46f_616f_4188_8ab4_19ac34caf9be_Class50 v ) ) ( type_1e60d46f_616f_4188_8ab4_19ac34caf9be_Class41 v ) ) (< ( class14_Class14IntAttr4 ( obj_2ff4cf09_9410_4392_80c2_9fb44edaedf9 v )  )  7))):named l0))
(assert (! (exists ((o Int)) ( type_1e60d46f_616f_4188_8ab4_19ac34caf9be_Class0 ( obj_2ff4cf09_9410_4392_80c2_9fb44edaedf9 o )  ) ):named c0))
(assert (! (exists ((o Int)) (and (and (and (and (and ( type_1e60d46f_616f_4188_8ab4_19ac34caf9be_Class1 ( obj_2ff4cf09_9410_4392_80c2_9fb44edaedf9 o )  )  ( type_1e60d46f_616f_4188_8ab4_19ac34caf9be_Class45 ( obj_2ff4cf09_9410_4392_80c2_9fb44edaedf9 o )  ) ) ( type_1e60d46f_616f_4188_8ab4_19ac34caf9be_Class12 ( obj_2ff4cf09_9410_4392_80c2_9fb44edaedf9 o )  ) ) ( type_1e60d46f_616f_4188_8ab4_19ac34caf9be_Class33 ( obj_2ff4cf09_9410_4392_80c2_9fb44edaedf9 o )  ) ) ( type_1e60d46f_616f_4188_8ab4_19ac34caf9be_Class22 ( obj_2ff4cf09_9410_4392_80c2_9fb44edaedf9 o )  ) ) ( type_1e60d46f_616f_4188_8ab4_19ac34caf9be_Class39 ( obj_2ff4cf09_9410_4392_80c2_9fb44edaedf9 o )  ) )):named c1))
(assert (! (exists ((o Int)) (and (and (and (and (and (and (and (and (and ( type_1e60d46f_616f_4188_8ab4_19ac34caf9be_Class10 ( obj_2ff4cf09_9410_4392_80c2_9fb44edaedf9 o )  )  ( type_1e60d46f_616f_4188_8ab4_19ac34caf9be_Class45 ( obj_2ff4cf09_9410_4392_80c2_9fb44edaedf9 o )  ) ) ( type_1e60d46f_616f_4188_8ab4_19ac34caf9be_Class12 ( obj_2ff4cf09_9410_4392_80c2_9fb44edaedf9 o )  ) ) ( type_1e60d46f_616f_4188_8ab4_19ac34caf9be_Class55 ( obj_2ff4cf09_9410_4392_80c2_9fb44edaedf9 o )  ) ) ( type_1e60d46f_616f_4188_8ab4_19ac34caf9be_Class33 ( obj_2ff4cf09_9410_4392_80c2_9fb44edaedf9 o )  ) ) ( type_1e60d46f_616f_4188_8ab4_19ac34caf9be_Class22 ( obj_2ff4cf09_9410_4392_80c2_9fb44edaedf9 o )  ) ) ( type_1e60d46f_616f_4188_8ab4_19ac34caf9be_Class29 ( obj_2ff4cf09_9410_4392_80c2_9fb44edaedf9 o )  ) ) ( type_1e60d46f_616f_4188_8ab4_19ac34caf9be_Class39 ( obj_2ff4cf09_9410_4392_80c2_9fb44edaedf9 o )  ) ) ( type_1e60d46f_616f_4188_8ab4_19ac34caf9be_Class50 ( obj_2ff4cf09_9410_4392_80c2_9fb44edaedf9 o )  ) ) ( type_1e60d46f_616f_4188_8ab4_19ac34caf9be_Class41 ( obj_2ff4cf09_9410_4392_80c2_9fb44edaedf9 o )  ) )):named c2))
(assert (! (exists ((o Int)) ( type_1e60d46f_616f_4188_8ab4_19ac34caf9be_Class11 ( obj_2ff4cf09_9410_4392_80c2_9fb44edaedf9 o )  ) ):named c3))
(assert (! (exists ((o Int)) (and (and (and ( type_1e60d46f_616f_4188_8ab4_19ac34caf9be_Class12 ( obj_2ff4cf09_9410_4392_80c2_9fb44edaedf9 o )  )  ( type_1e60d46f_616f_4188_8ab4_19ac34caf9be_Class33 ( obj_2ff4cf09_9410_4392_80c2_9fb44edaedf9 o )  ) ) ( type_1e60d46f_616f_4188_8ab4_19ac34caf9be_Class22 ( obj_2ff4cf09_9410_4392_80c2_9fb44edaedf9 o )  ) ) ( type_1e60d46f_616f_4188_8ab4_19ac34caf9be_Class39 ( obj_2ff4cf09_9410_4392_80c2_9fb44edaedf9 o )  ) )):named c4))
(assert (! (exists ((o Int)) (and (and (and (and (and (and (and (and (and ( type_1e60d46f_616f_4188_8ab4_19ac34caf9be_Class13 ( obj_2ff4cf09_9410_4392_80c2_9fb44edaedf9 o )  )  ( type_1e60d46f_616f_4188_8ab4_19ac34caf9be_Class45 ( obj_2ff4cf09_9410_4392_80c2_9fb44edaedf9 o )  ) ) ( type_1e60d46f_616f_4188_8ab4_19ac34caf9be_Class12 ( obj_2ff4cf09_9410_4392_80c2_9fb44edaedf9 o )  ) ) ( type_1e60d46f_616f_4188_8ab4_19ac34caf9be_Class55 ( obj_2ff4cf09_9410_4392_80c2_9fb44edaedf9 o )  ) ) ( type_1e60d46f_616f_4188_8ab4_19ac34caf9be_Class33 ( obj_2ff4cf09_9410_4392_80c2_9fb44edaedf9 o )  ) ) ( type_1e60d46f_616f_4188_8ab4_19ac34caf9be_Class22 ( obj_2ff4cf09_9410_4392_80c2_9fb44edaedf9 o )  ) ) ( type_1e60d46f_616f_4188_8ab4_19ac34caf9be_Class29 ( obj_2ff4cf09_9410_4392_80c2_9fb44edaedf9 o )  ) ) ( type_1e60d46f_616f_4188_8ab4_19ac34caf9be_Class39 ( obj_2ff4cf09_9410_4392_80c2_9fb44edaedf9 o )  ) ) ( type_1e60d46f_616f_4188_8ab4_19ac34caf9be_Class50 ( obj_2ff4cf09_9410_4392_80c2_9fb44edaedf9 o )  ) ) ( type_1e60d46f_616f_4188_8ab4_19ac34caf9be_Class41 ( obj_2ff4cf09_9410_4392_80c2_9fb44edaedf9 o )  ) )):named c5))
(assert (! (exists ((o Int)) (and (and (and (and (and (and (and (and (and ( type_1e60d46f_616f_4188_8ab4_19ac34caf9be_Class14 ( obj_2ff4cf09_9410_4392_80c2_9fb44edaedf9 o )  )  ( type_1e60d46f_616f_4188_8ab4_19ac34caf9be_Class45 ( obj_2ff4cf09_9410_4392_80c2_9fb44edaedf9 o )  ) ) ( type_1e60d46f_616f_4188_8ab4_19ac34caf9be_Class12 ( obj_2ff4cf09_9410_4392_80c2_9fb44edaedf9 o )  ) ) ( type_1e60d46f_616f_4188_8ab4_19ac34caf9be_Class55 ( obj_2ff4cf09_9410_4392_80c2_9fb44edaedf9 o )  ) ) ( type_1e60d46f_616f_4188_8ab4_19ac34caf9be_Class33 ( obj_2ff4cf09_9410_4392_80c2_9fb44edaedf9 o )  ) ) ( type_1e60d46f_616f_4188_8ab4_19ac34caf9be_Class22 ( obj_2ff4cf09_9410_4392_80c2_9fb44edaedf9 o )  ) ) ( type_1e60d46f_616f_4188_8ab4_19ac34caf9be_Class29 ( obj_2ff4cf09_9410_4392_80c2_9fb44edaedf9 o )  ) ) ( type_1e60d46f_616f_4188_8ab4_19ac34caf9be_Class39 ( obj_2ff4cf09_9410_4392_80c2_9fb44edaedf9 o )  ) ) ( type_1e60d46f_616f_4188_8ab4_19ac34caf9be_Class50 ( obj_2ff4cf09_9410_4392_80c2_9fb44edaedf9 o )  ) ) ( type_1e60d46f_616f_4188_8ab4_19ac34caf9be_Class41 ( obj_2ff4cf09_9410_4392_80c2_9fb44edaedf9 o )  ) )):named c6))
(assert (! (exists ((o Int)) ( type_1e60d46f_616f_4188_8ab4_19ac34caf9be_Class15 ( obj_2ff4cf09_9410_4392_80c2_9fb44edaedf9 o )  ) ):named c7))
(assert (! (exists ((o Int)) (and (and (and (and (and ( type_1e60d46f_616f_4188_8ab4_19ac34caf9be_Class16 ( obj_2ff4cf09_9410_4392_80c2_9fb44edaedf9 o )  )  ( type_1e60d46f_616f_4188_8ab4_19ac34caf9be_Class45 ( obj_2ff4cf09_9410_4392_80c2_9fb44edaedf9 o )  ) ) ( type_1e60d46f_616f_4188_8ab4_19ac34caf9be_Class12 ( obj_2ff4cf09_9410_4392_80c2_9fb44edaedf9 o )  ) ) ( type_1e60d46f_616f_4188_8ab4_19ac34caf9be_Class33 ( obj_2ff4cf09_9410_4392_80c2_9fb44edaedf9 o )  ) ) ( type_1e60d46f_616f_4188_8ab4_19ac34caf9be_Class22 ( obj_2ff4cf09_9410_4392_80c2_9fb44edaedf9 o )  ) ) ( type_1e60d46f_616f_4188_8ab4_19ac34caf9be_Class39 ( obj_2ff4cf09_9410_4392_80c2_9fb44edaedf9 o )  ) )):named c8))
(assert (! (exists ((o Int)) ( type_1e60d46f_616f_4188_8ab4_19ac34caf9be_Class17 ( obj_2ff4cf09_9410_4392_80c2_9fb44edaedf9 o )  ) ):named c9))
(assert (! (exists ((o Int)) (and (and (and ( type_1e60d46f_616f_4188_8ab4_19ac34caf9be_Class18 ( obj_2ff4cf09_9410_4392_80c2_9fb44edaedf9 o )  )  ( type_1e60d46f_616f_4188_8ab4_19ac34caf9be_Class25 ( obj_2ff4cf09_9410_4392_80c2_9fb44edaedf9 o )  ) ) ( type_1e60d46f_616f_4188_8ab4_19ac34caf9be_Class24 ( obj_2ff4cf09_9410_4392_80c2_9fb44edaedf9 o )  ) ) ( type_1e60d46f_616f_4188_8ab4_19ac34caf9be_Class39 ( obj_2ff4cf09_9410_4392_80c2_9fb44edaedf9 o )  ) )):named c10))
(assert (! (exists ((o Int)) (and (and (and (and (and (and (and (and (and ( type_1e60d46f_616f_4188_8ab4_19ac34caf9be_Class19 ( obj_2ff4cf09_9410_4392_80c2_9fb44edaedf9 o )  )  ( type_1e60d46f_616f_4188_8ab4_19ac34caf9be_Class45 ( obj_2ff4cf09_9410_4392_80c2_9fb44edaedf9 o )  ) ) ( type_1e60d46f_616f_4188_8ab4_19ac34caf9be_Class12 ( obj_2ff4cf09_9410_4392_80c2_9fb44edaedf9 o )  ) ) ( type_1e60d46f_616f_4188_8ab4_19ac34caf9be_Class55 ( obj_2ff4cf09_9410_4392_80c2_9fb44edaedf9 o )  ) ) ( type_1e60d46f_616f_4188_8ab4_19ac34caf9be_Class33 ( obj_2ff4cf09_9410_4392_80c2_9fb44edaedf9 o )  ) ) ( type_1e60d46f_616f_4188_8ab4_19ac34caf9be_Class22 ( obj_2ff4cf09_9410_4392_80c2_9fb44edaedf9 o )  ) ) ( type_1e60d46f_616f_4188_8ab4_19ac34caf9be_Class29 ( obj_2ff4cf09_9410_4392_80c2_9fb44edaedf9 o )  ) ) ( type_1e60d46f_616f_4188_8ab4_19ac34caf9be_Class39 ( obj_2ff4cf09_9410_4392_80c2_9fb44edaedf9 o )  ) ) ( type_1e60d46f_616f_4188_8ab4_19ac34caf9be_Class50 ( obj_2ff4cf09_9410_4392_80c2_9fb44edaedf9 o )  ) ) ( type_1e60d46f_616f_4188_8ab4_19ac34caf9be_Class41 ( obj_2ff4cf09_9410_4392_80c2_9fb44edaedf9 o )  ) )):named c11))
(assert (! (exists ((o Int)) ( type_1e60d46f_616f_4188_8ab4_19ac34caf9be_Class2 ( obj_2ff4cf09_9410_4392_80c2_9fb44edaedf9 o )  ) ):named c12))
(assert (! (exists ((o Int)) ( type_1e60d46f_616f_4188_8ab4_19ac34caf9be_Class20 ( obj_2ff4cf09_9410_4392_80c2_9fb44edaedf9 o )  ) ):named c13))
(assert (! (exists ((o Int)) (and (and (and (and (and (and (and (and (and ( type_1e60d46f_616f_4188_8ab4_19ac34caf9be_Class21 ( obj_2ff4cf09_9410_4392_80c2_9fb44edaedf9 o )  )  ( type_1e60d46f_616f_4188_8ab4_19ac34caf9be_Class45 ( obj_2ff4cf09_9410_4392_80c2_9fb44edaedf9 o )  ) ) ( type_1e60d46f_616f_4188_8ab4_19ac34caf9be_Class12 ( obj_2ff4cf09_9410_4392_80c2_9fb44edaedf9 o )  ) ) ( type_1e60d46f_616f_4188_8ab4_19ac34caf9be_Class33 ( obj_2ff4cf09_9410_4392_80c2_9fb44edaedf9 o )  ) ) ( type_1e60d46f_616f_4188_8ab4_19ac34caf9be_Class22 ( obj_2ff4cf09_9410_4392_80c2_9fb44edaedf9 o )  ) ) ( type_1e60d46f_616f_4188_8ab4_19ac34caf9be_Class16 ( obj_2ff4cf09_9410_4392_80c2_9fb44edaedf9 o )  ) ) ( type_1e60d46f_616f_4188_8ab4_19ac34caf9be_Class29 ( obj_2ff4cf09_9410_4392_80c2_9fb44edaedf9 o )  ) ) ( type_1e60d46f_616f_4188_8ab4_19ac34caf9be_Class39 ( obj_2ff4cf09_9410_4392_80c2_9fb44edaedf9 o )  ) ) ( type_1e60d46f_616f_4188_8ab4_19ac34caf9be_Class41 ( obj_2ff4cf09_9410_4392_80c2_9fb44edaedf9 o )  ) ) ( type_1e60d46f_616f_4188_8ab4_19ac34caf9be_Class51 ( obj_2ff4cf09_9410_4392_80c2_9fb44edaedf9 o )  ) )):named c14))
(assert (! (exists ((o Int)) (and ( type_1e60d46f_616f_4188_8ab4_19ac34caf9be_Class22 ( obj_2ff4cf09_9410_4392_80c2_9fb44edaedf9 o )  )  ( type_1e60d46f_616f_4188_8ab4_19ac34caf9be_Class39 ( obj_2ff4cf09_9410_4392_80c2_9fb44edaedf9 o )  ) )):named c15))
(assert (! (exists ((o Int)) (and (and (and (and ( type_1e60d46f_616f_4188_8ab4_19ac34caf9be_Class23 ( obj_2ff4cf09_9410_4392_80c2_9fb44edaedf9 o )  )  ( type_1e60d46f_616f_4188_8ab4_19ac34caf9be_Class25 ( obj_2ff4cf09_9410_4392_80c2_9fb44edaedf9 o )  ) ) ( type_1e60d46f_616f_4188_8ab4_19ac34caf9be_Class24 ( obj_2ff4cf09_9410_4392_80c2_9fb44edaedf9 o )  ) ) ( type_1e60d46f_616f_4188_8ab4_19ac34caf9be_Class39 ( obj_2ff4cf09_9410_4392_80c2_9fb44edaedf9 o )  ) ) ( type_1e60d46f_616f_4188_8ab4_19ac34caf9be_Class5 ( obj_2ff4cf09_9410_4392_80c2_9fb44edaedf9 o )  ) )):named c16))
(assert (! (exists ((o Int)) (and (and ( type_1e60d46f_616f_4188_8ab4_19ac34caf9be_Class24 ( obj_2ff4cf09_9410_4392_80c2_9fb44edaedf9 o )  )  ( type_1e60d46f_616f_4188_8ab4_19ac34caf9be_Class25 ( obj_2ff4cf09_9410_4392_80c2_9fb44edaedf9 o )  ) ) ( type_1e60d46f_616f_4188_8ab4_19ac34caf9be_Class39 ( obj_2ff4cf09_9410_4392_80c2_9fb44edaedf9 o )  ) )):named c17))
(assert (! (exists ((o Int)) (and ( type_1e60d46f_616f_4188_8ab4_19ac34caf9be_Class25 ( obj_2ff4cf09_9410_4392_80c2_9fb44edaedf9 o )  )  ( type_1e60d46f_616f_4188_8ab4_19ac34caf9be_Class39 ( obj_2ff4cf09_9410_4392_80c2_9fb44edaedf9 o )  ) )):named c18))
(assert (! (exists ((o Int)) ( type_1e60d46f_616f_4188_8ab4_19ac34caf9be_Class26 ( obj_2ff4cf09_9410_4392_80c2_9fb44edaedf9 o )  ) ):named c19))
(assert (! (exists ((o Int)) ( type_1e60d46f_616f_4188_8ab4_19ac34caf9be_Class27 ( obj_2ff4cf09_9410_4392_80c2_9fb44edaedf9 o )  ) ):named c20))
(assert (! (exists ((o Int)) (and (and (and (and (and (and (and ( type_1e60d46f_616f_4188_8ab4_19ac34caf9be_Class28 ( obj_2ff4cf09_9410_4392_80c2_9fb44edaedf9 o )  )  ( type_1e60d46f_616f_4188_8ab4_19ac34caf9be_Class45 ( obj_2ff4cf09_9410_4392_80c2_9fb44edaedf9 o )  ) ) ( type_1e60d46f_616f_4188_8ab4_19ac34caf9be_Class12 ( obj_2ff4cf09_9410_4392_80c2_9fb44edaedf9 o )  ) ) ( type_1e60d46f_616f_4188_8ab4_19ac34caf9be_Class33 ( obj_2ff4cf09_9410_4392_80c2_9fb44edaedf9 o )  ) ) ( type_1e60d46f_616f_4188_8ab4_19ac34caf9be_Class22 ( obj_2ff4cf09_9410_4392_80c2_9fb44edaedf9 o )  ) ) ( type_1e60d46f_616f_4188_8ab4_19ac34caf9be_Class29 ( obj_2ff4cf09_9410_4392_80c2_9fb44edaedf9 o )  ) ) ( type_1e60d46f_616f_4188_8ab4_19ac34caf9be_Class39 ( obj_2ff4cf09_9410_4392_80c2_9fb44edaedf9 o )  ) ) ( type_1e60d46f_616f_4188_8ab4_19ac34caf9be_Class41 ( obj_2ff4cf09_9410_4392_80c2_9fb44edaedf9 o )  ) )):named c21))
(assert (! (exists ((o Int)) (and (and (and (and (and (and ( type_1e60d46f_616f_4188_8ab4_19ac34caf9be_Class29 ( obj_2ff4cf09_9410_4392_80c2_9fb44edaedf9 o )  )  ( type_1e60d46f_616f_4188_8ab4_19ac34caf9be_Class45 ( obj_2ff4cf09_9410_4392_80c2_9fb44edaedf9 o )  ) ) ( type_1e60d46f_616f_4188_8ab4_19ac34caf9be_Class12 ( obj_2ff4cf09_9410_4392_80c2_9fb44edaedf9 o )  ) ) ( type_1e60d46f_616f_4188_8ab4_19ac34caf9be_Class33 ( obj_2ff4cf09_9410_4392_80c2_9fb44edaedf9 o )  ) ) ( type_1e60d46f_616f_4188_8ab4_19ac34caf9be_Class22 ( obj_2ff4cf09_9410_4392_80c2_9fb44edaedf9 o )  ) ) ( type_1e60d46f_616f_4188_8ab4_19ac34caf9be_Class39 ( obj_2ff4cf09_9410_4392_80c2_9fb44edaedf9 o )  ) ) ( type_1e60d46f_616f_4188_8ab4_19ac34caf9be_Class41 ( obj_2ff4cf09_9410_4392_80c2_9fb44edaedf9 o )  ) )):named c22))
(assert (! (exists ((o Int)) (and (and (and ( type_1e60d46f_616f_4188_8ab4_19ac34caf9be_Class3 ( obj_2ff4cf09_9410_4392_80c2_9fb44edaedf9 o )  )  ( type_1e60d46f_616f_4188_8ab4_19ac34caf9be_Class25 ( obj_2ff4cf09_9410_4392_80c2_9fb44edaedf9 o )  ) ) ( type_1e60d46f_616f_4188_8ab4_19ac34caf9be_Class24 ( obj_2ff4cf09_9410_4392_80c2_9fb44edaedf9 o )  ) ) ( type_1e60d46f_616f_4188_8ab4_19ac34caf9be_Class39 ( obj_2ff4cf09_9410_4392_80c2_9fb44edaedf9 o )  ) )):named c23))
(assert (! (exists ((o Int)) (and ( type_1e60d46f_616f_4188_8ab4_19ac34caf9be_Class30 ( obj_2ff4cf09_9410_4392_80c2_9fb44edaedf9 o )  )  ( type_1e60d46f_616f_4188_8ab4_19ac34caf9be_Class39 ( obj_2ff4cf09_9410_4392_80c2_9fb44edaedf9 o )  ) )):named c24))
(assert (! (exists ((o Int)) (and (and (and (and (and ( type_1e60d46f_616f_4188_8ab4_19ac34caf9be_Class31 ( obj_2ff4cf09_9410_4392_80c2_9fb44edaedf9 o )  )  ( type_1e60d46f_616f_4188_8ab4_19ac34caf9be_Class45 ( obj_2ff4cf09_9410_4392_80c2_9fb44edaedf9 o )  ) ) ( type_1e60d46f_616f_4188_8ab4_19ac34caf9be_Class12 ( obj_2ff4cf09_9410_4392_80c2_9fb44edaedf9 o )  ) ) ( type_1e60d46f_616f_4188_8ab4_19ac34caf9be_Class33 ( obj_2ff4cf09_9410_4392_80c2_9fb44edaedf9 o )  ) ) ( type_1e60d46f_616f_4188_8ab4_19ac34caf9be_Class22 ( obj_2ff4cf09_9410_4392_80c2_9fb44edaedf9 o )  ) ) ( type_1e60d46f_616f_4188_8ab4_19ac34caf9be_Class39 ( obj_2ff4cf09_9410_4392_80c2_9fb44edaedf9 o )  ) )):named c25))
(assert (! (exists ((o Int)) ( type_1e60d46f_616f_4188_8ab4_19ac34caf9be_Class32 ( obj_2ff4cf09_9410_4392_80c2_9fb44edaedf9 o )  ) ):named c26))
(assert (! (exists ((o Int)) (and (and ( type_1e60d46f_616f_4188_8ab4_19ac34caf9be_Class33 ( obj_2ff4cf09_9410_4392_80c2_9fb44edaedf9 o )  )  ( type_1e60d46f_616f_4188_8ab4_19ac34caf9be_Class22 ( obj_2ff4cf09_9410_4392_80c2_9fb44edaedf9 o )  ) ) ( type_1e60d46f_616f_4188_8ab4_19ac34caf9be_Class39 ( obj_2ff4cf09_9410_4392_80c2_9fb44edaedf9 o )  ) )):named c27))
(assert (! (exists ((o Int)) (and (and (and ( type_1e60d46f_616f_4188_8ab4_19ac34caf9be_Class34 ( obj_2ff4cf09_9410_4392_80c2_9fb44edaedf9 o )  )  ( type_1e60d46f_616f_4188_8ab4_19ac34caf9be_Class25 ( obj_2ff4cf09_9410_4392_80c2_9fb44edaedf9 o )  ) ) ( type_1e60d46f_616f_4188_8ab4_19ac34caf9be_Class24 ( obj_2ff4cf09_9410_4392_80c2_9fb44edaedf9 o )  ) ) ( type_1e60d46f_616f_4188_8ab4_19ac34caf9be_Class39 ( obj_2ff4cf09_9410_4392_80c2_9fb44edaedf9 o )  ) )):named c28))
(assert (! (exists ((o Int)) (and (and ( type_1e60d46f_616f_4188_8ab4_19ac34caf9be_Class35 ( obj_2ff4cf09_9410_4392_80c2_9fb44edaedf9 o )  )  ( type_1e60d46f_616f_4188_8ab4_19ac34caf9be_Class39 ( obj_2ff4cf09_9410_4392_80c2_9fb44edaedf9 o )  ) ) ( type_1e60d46f_616f_4188_8ab4_19ac34caf9be_Class30 ( obj_2ff4cf09_9410_4392_80c2_9fb44edaedf9 o )  ) )):named c29))
(assert (! (exists ((o Int)) ( type_1e60d46f_616f_4188_8ab4_19ac34caf9be_Class36 ( obj_2ff4cf09_9410_4392_80c2_9fb44edaedf9 o )  ) ):named c30))
(assert (! (exists ((o Int)) ( type_1e60d46f_616f_4188_8ab4_19ac34caf9be_Class37 ( obj_2ff4cf09_9410_4392_80c2_9fb44edaedf9 o )  ) ):named c31))
(assert (! (exists ((o Int)) ( type_1e60d46f_616f_4188_8ab4_19ac34caf9be_Class38 ( obj_2ff4cf09_9410_4392_80c2_9fb44edaedf9 o )  ) ):named c32))
(assert (! (exists ((o Int)) ( type_1e60d46f_616f_4188_8ab4_19ac34caf9be_Class39 ( obj_2ff4cf09_9410_4392_80c2_9fb44edaedf9 o )  ) ):named c33))
(assert (! (exists ((o Int)) ( type_1e60d46f_616f_4188_8ab4_19ac34caf9be_Class4 ( obj_2ff4cf09_9410_4392_80c2_9fb44edaedf9 o )  ) ):named c34))
(assert (! (exists ((o Int)) (and (and (and (and (and (and (and (and (and ( type_1e60d46f_616f_4188_8ab4_19ac34caf9be_Class40 ( obj_2ff4cf09_9410_4392_80c2_9fb44edaedf9 o )  )  ( type_1e60d46f_616f_4188_8ab4_19ac34caf9be_Class45 ( obj_2ff4cf09_9410_4392_80c2_9fb44edaedf9 o )  ) ) ( type_1e60d46f_616f_4188_8ab4_19ac34caf9be_Class12 ( obj_2ff4cf09_9410_4392_80c2_9fb44edaedf9 o )  ) ) ( type_1e60d46f_616f_4188_8ab4_19ac34caf9be_Class55 ( obj_2ff4cf09_9410_4392_80c2_9fb44edaedf9 o )  ) ) ( type_1e60d46f_616f_4188_8ab4_19ac34caf9be_Class33 ( obj_2ff4cf09_9410_4392_80c2_9fb44edaedf9 o )  ) ) ( type_1e60d46f_616f_4188_8ab4_19ac34caf9be_Class22 ( obj_2ff4cf09_9410_4392_80c2_9fb44edaedf9 o )  ) ) ( type_1e60d46f_616f_4188_8ab4_19ac34caf9be_Class29 ( obj_2ff4cf09_9410_4392_80c2_9fb44edaedf9 o )  ) ) ( type_1e60d46f_616f_4188_8ab4_19ac34caf9be_Class39 ( obj_2ff4cf09_9410_4392_80c2_9fb44edaedf9 o )  ) ) ( type_1e60d46f_616f_4188_8ab4_19ac34caf9be_Class50 ( obj_2ff4cf09_9410_4392_80c2_9fb44edaedf9 o )  ) ) ( type_1e60d46f_616f_4188_8ab4_19ac34caf9be_Class41 ( obj_2ff4cf09_9410_4392_80c2_9fb44edaedf9 o )  ) )):named c35))
(assert (! (exists ((o Int)) (and (and (and (and (and ( type_1e60d46f_616f_4188_8ab4_19ac34caf9be_Class41 ( obj_2ff4cf09_9410_4392_80c2_9fb44edaedf9 o )  )  ( type_1e60d46f_616f_4188_8ab4_19ac34caf9be_Class45 ( obj_2ff4cf09_9410_4392_80c2_9fb44edaedf9 o )  ) ) ( type_1e60d46f_616f_4188_8ab4_19ac34caf9be_Class12 ( obj_2ff4cf09_9410_4392_80c2_9fb44edaedf9 o )  ) ) ( type_1e60d46f_616f_4188_8ab4_19ac34caf9be_Class33 ( obj_2ff4cf09_9410_4392_80c2_9fb44edaedf9 o )  ) ) ( type_1e60d46f_616f_4188_8ab4_19ac34caf9be_Class22 ( obj_2ff4cf09_9410_4392_80c2_9fb44edaedf9 o )  ) ) ( type_1e60d46f_616f_4188_8ab4_19ac34caf9be_Class39 ( obj_2ff4cf09_9410_4392_80c2_9fb44edaedf9 o )  ) )):named c36))
(assert (! (exists ((o Int)) (and ( type_1e60d46f_616f_4188_8ab4_19ac34caf9be_Class42 ( obj_2ff4cf09_9410_4392_80c2_9fb44edaedf9 o )  )  ( type_1e60d46f_616f_4188_8ab4_19ac34caf9be_Class39 ( obj_2ff4cf09_9410_4392_80c2_9fb44edaedf9 o )  ) )):named c37))
(assert (! (exists ((o Int)) ( type_1e60d46f_616f_4188_8ab4_19ac34caf9be_Class43 ( obj_2ff4cf09_9410_4392_80c2_9fb44edaedf9 o )  ) ):named c38))
(assert (! (exists ((o Int)) (and (and (and (and (and (and (and ( type_1e60d46f_616f_4188_8ab4_19ac34caf9be_Class44 ( obj_2ff4cf09_9410_4392_80c2_9fb44edaedf9 o )  )  ( type_1e60d46f_616f_4188_8ab4_19ac34caf9be_Class45 ( obj_2ff4cf09_9410_4392_80c2_9fb44edaedf9 o )  ) ) ( type_1e60d46f_616f_4188_8ab4_19ac34caf9be_Class12 ( obj_2ff4cf09_9410_4392_80c2_9fb44edaedf9 o )  ) ) ( type_1e60d46f_616f_4188_8ab4_19ac34caf9be_Class33 ( obj_2ff4cf09_9410_4392_80c2_9fb44edaedf9 o )  ) ) ( type_1e60d46f_616f_4188_8ab4_19ac34caf9be_Class22 ( obj_2ff4cf09_9410_4392_80c2_9fb44edaedf9 o )  ) ) ( type_1e60d46f_616f_4188_8ab4_19ac34caf9be_Class29 ( obj_2ff4cf09_9410_4392_80c2_9fb44edaedf9 o )  ) ) ( type_1e60d46f_616f_4188_8ab4_19ac34caf9be_Class39 ( obj_2ff4cf09_9410_4392_80c2_9fb44edaedf9 o )  ) ) ( type_1e60d46f_616f_4188_8ab4_19ac34caf9be_Class41 ( obj_2ff4cf09_9410_4392_80c2_9fb44edaedf9 o )  ) )):named c39))
(assert (! (exists ((o Int)) (and (and (and (and ( type_1e60d46f_616f_4188_8ab4_19ac34caf9be_Class45 ( obj_2ff4cf09_9410_4392_80c2_9fb44edaedf9 o )  )  ( type_1e60d46f_616f_4188_8ab4_19ac34caf9be_Class12 ( obj_2ff4cf09_9410_4392_80c2_9fb44edaedf9 o )  ) ) ( type_1e60d46f_616f_4188_8ab4_19ac34caf9be_Class33 ( obj_2ff4cf09_9410_4392_80c2_9fb44edaedf9 o )  ) ) ( type_1e60d46f_616f_4188_8ab4_19ac34caf9be_Class22 ( obj_2ff4cf09_9410_4392_80c2_9fb44edaedf9 o )  ) ) ( type_1e60d46f_616f_4188_8ab4_19ac34caf9be_Class39 ( obj_2ff4cf09_9410_4392_80c2_9fb44edaedf9 o )  ) )):named c40))
(assert (! (exists ((o Int)) (and (and ( type_1e60d46f_616f_4188_8ab4_19ac34caf9be_Class46 ( obj_2ff4cf09_9410_4392_80c2_9fb44edaedf9 o )  )  ( type_1e60d46f_616f_4188_8ab4_19ac34caf9be_Class39 ( obj_2ff4cf09_9410_4392_80c2_9fb44edaedf9 o )  ) ) ( type_1e60d46f_616f_4188_8ab4_19ac34caf9be_Class5 ( obj_2ff4cf09_9410_4392_80c2_9fb44edaedf9 o )  ) )):named c41))
(assert (! (exists ((o Int)) ( type_1e60d46f_616f_4188_8ab4_19ac34caf9be_Class47 ( obj_2ff4cf09_9410_4392_80c2_9fb44edaedf9 o )  ) ):named c42))
(assert (! (exists ((o Int)) (and (and (and (and (and (and (and (and (and ( type_1e60d46f_616f_4188_8ab4_19ac34caf9be_Class48 ( obj_2ff4cf09_9410_4392_80c2_9fb44edaedf9 o )  )  ( type_1e60d46f_616f_4188_8ab4_19ac34caf9be_Class45 ( obj_2ff4cf09_9410_4392_80c2_9fb44edaedf9 o )  ) ) ( type_1e60d46f_616f_4188_8ab4_19ac34caf9be_Class12 ( obj_2ff4cf09_9410_4392_80c2_9fb44edaedf9 o )  ) ) ( type_1e60d46f_616f_4188_8ab4_19ac34caf9be_Class55 ( obj_2ff4cf09_9410_4392_80c2_9fb44edaedf9 o )  ) ) ( type_1e60d46f_616f_4188_8ab4_19ac34caf9be_Class33 ( obj_2ff4cf09_9410_4392_80c2_9fb44edaedf9 o )  ) ) ( type_1e60d46f_616f_4188_8ab4_19ac34caf9be_Class22 ( obj_2ff4cf09_9410_4392_80c2_9fb44edaedf9 o )  ) ) ( type_1e60d46f_616f_4188_8ab4_19ac34caf9be_Class29 ( obj_2ff4cf09_9410_4392_80c2_9fb44edaedf9 o )  ) ) ( type_1e60d46f_616f_4188_8ab4_19ac34caf9be_Class39 ( obj_2ff4cf09_9410_4392_80c2_9fb44edaedf9 o )  ) ) ( type_1e60d46f_616f_4188_8ab4_19ac34caf9be_Class50 ( obj_2ff4cf09_9410_4392_80c2_9fb44edaedf9 o )  ) ) ( type_1e60d46f_616f_4188_8ab4_19ac34caf9be_Class41 ( obj_2ff4cf09_9410_4392_80c2_9fb44edaedf9 o )  ) )):named c43))
(assert (! (exists ((o Int)) (and (and (and (and (and (and (and (and (and ( type_1e60d46f_616f_4188_8ab4_19ac34caf9be_Class49 ( obj_2ff4cf09_9410_4392_80c2_9fb44edaedf9 o )  )  ( type_1e60d46f_616f_4188_8ab4_19ac34caf9be_Class45 ( obj_2ff4cf09_9410_4392_80c2_9fb44edaedf9 o )  ) ) ( type_1e60d46f_616f_4188_8ab4_19ac34caf9be_Class12 ( obj_2ff4cf09_9410_4392_80c2_9fb44edaedf9 o )  ) ) ( type_1e60d46f_616f_4188_8ab4_19ac34caf9be_Class55 ( obj_2ff4cf09_9410_4392_80c2_9fb44edaedf9 o )  ) ) ( type_1e60d46f_616f_4188_8ab4_19ac34caf9be_Class33 ( obj_2ff4cf09_9410_4392_80c2_9fb44edaedf9 o )  ) ) ( type_1e60d46f_616f_4188_8ab4_19ac34caf9be_Class22 ( obj_2ff4cf09_9410_4392_80c2_9fb44edaedf9 o )  ) ) ( type_1e60d46f_616f_4188_8ab4_19ac34caf9be_Class29 ( obj_2ff4cf09_9410_4392_80c2_9fb44edaedf9 o )  ) ) ( type_1e60d46f_616f_4188_8ab4_19ac34caf9be_Class39 ( obj_2ff4cf09_9410_4392_80c2_9fb44edaedf9 o )  ) ) ( type_1e60d46f_616f_4188_8ab4_19ac34caf9be_Class50 ( obj_2ff4cf09_9410_4392_80c2_9fb44edaedf9 o )  ) ) ( type_1e60d46f_616f_4188_8ab4_19ac34caf9be_Class41 ( obj_2ff4cf09_9410_4392_80c2_9fb44edaedf9 o )  ) )):named c44))
(assert (! (exists ((o Int)) (and ( type_1e60d46f_616f_4188_8ab4_19ac34caf9be_Class5 ( obj_2ff4cf09_9410_4392_80c2_9fb44edaedf9 o )  )  ( type_1e60d46f_616f_4188_8ab4_19ac34caf9be_Class39 ( obj_2ff4cf09_9410_4392_80c2_9fb44edaedf9 o )  ) )):named c45))
(assert (! (exists ((o Int)) (and (and (and (and (and (and (and (and ( type_1e60d46f_616f_4188_8ab4_19ac34caf9be_Class50 ( obj_2ff4cf09_9410_4392_80c2_9fb44edaedf9 o )  )  ( type_1e60d46f_616f_4188_8ab4_19ac34caf9be_Class45 ( obj_2ff4cf09_9410_4392_80c2_9fb44edaedf9 o )  ) ) ( type_1e60d46f_616f_4188_8ab4_19ac34caf9be_Class12 ( obj_2ff4cf09_9410_4392_80c2_9fb44edaedf9 o )  ) ) ( type_1e60d46f_616f_4188_8ab4_19ac34caf9be_Class55 ( obj_2ff4cf09_9410_4392_80c2_9fb44edaedf9 o )  ) ) ( type_1e60d46f_616f_4188_8ab4_19ac34caf9be_Class33 ( obj_2ff4cf09_9410_4392_80c2_9fb44edaedf9 o )  ) ) ( type_1e60d46f_616f_4188_8ab4_19ac34caf9be_Class22 ( obj_2ff4cf09_9410_4392_80c2_9fb44edaedf9 o )  ) ) ( type_1e60d46f_616f_4188_8ab4_19ac34caf9be_Class29 ( obj_2ff4cf09_9410_4392_80c2_9fb44edaedf9 o )  ) ) ( type_1e60d46f_616f_4188_8ab4_19ac34caf9be_Class39 ( obj_2ff4cf09_9410_4392_80c2_9fb44edaedf9 o )  ) ) ( type_1e60d46f_616f_4188_8ab4_19ac34caf9be_Class41 ( obj_2ff4cf09_9410_4392_80c2_9fb44edaedf9 o )  ) )):named c46))
(assert (! (exists ((o Int)) (and (and (and (and (and (and ( type_1e60d46f_616f_4188_8ab4_19ac34caf9be_Class51 ( obj_2ff4cf09_9410_4392_80c2_9fb44edaedf9 o )  )  ( type_1e60d46f_616f_4188_8ab4_19ac34caf9be_Class45 ( obj_2ff4cf09_9410_4392_80c2_9fb44edaedf9 o )  ) ) ( type_1e60d46f_616f_4188_8ab4_19ac34caf9be_Class12 ( obj_2ff4cf09_9410_4392_80c2_9fb44edaedf9 o )  ) ) ( type_1e60d46f_616f_4188_8ab4_19ac34caf9be_Class33 ( obj_2ff4cf09_9410_4392_80c2_9fb44edaedf9 o )  ) ) ( type_1e60d46f_616f_4188_8ab4_19ac34caf9be_Class22 ( obj_2ff4cf09_9410_4392_80c2_9fb44edaedf9 o )  ) ) ( type_1e60d46f_616f_4188_8ab4_19ac34caf9be_Class16 ( obj_2ff4cf09_9410_4392_80c2_9fb44edaedf9 o )  ) ) ( type_1e60d46f_616f_4188_8ab4_19ac34caf9be_Class39 ( obj_2ff4cf09_9410_4392_80c2_9fb44edaedf9 o )  ) )):named c47))
(assert (! (exists ((o Int)) (and (and (and (and (and ( type_1e60d46f_616f_4188_8ab4_19ac34caf9be_Class52 ( obj_2ff4cf09_9410_4392_80c2_9fb44edaedf9 o )  )  ( type_1e60d46f_616f_4188_8ab4_19ac34caf9be_Class45 ( obj_2ff4cf09_9410_4392_80c2_9fb44edaedf9 o )  ) ) ( type_1e60d46f_616f_4188_8ab4_19ac34caf9be_Class12 ( obj_2ff4cf09_9410_4392_80c2_9fb44edaedf9 o )  ) ) ( type_1e60d46f_616f_4188_8ab4_19ac34caf9be_Class33 ( obj_2ff4cf09_9410_4392_80c2_9fb44edaedf9 o )  ) ) ( type_1e60d46f_616f_4188_8ab4_19ac34caf9be_Class22 ( obj_2ff4cf09_9410_4392_80c2_9fb44edaedf9 o )  ) ) ( type_1e60d46f_616f_4188_8ab4_19ac34caf9be_Class39 ( obj_2ff4cf09_9410_4392_80c2_9fb44edaedf9 o )  ) )):named c48))
(assert (! (exists ((o Int)) ( type_1e60d46f_616f_4188_8ab4_19ac34caf9be_Class53 ( obj_2ff4cf09_9410_4392_80c2_9fb44edaedf9 o )  ) ):named c49))
(assert (! (exists ((o Int)) ( type_1e60d46f_616f_4188_8ab4_19ac34caf9be_Class54 ( obj_2ff4cf09_9410_4392_80c2_9fb44edaedf9 o )  ) ):named c50))
(assert (! (exists ((o Int)) (and (and (and (and (and (and (and ( type_1e60d46f_616f_4188_8ab4_19ac34caf9be_Class55 ( obj_2ff4cf09_9410_4392_80c2_9fb44edaedf9 o )  )  ( type_1e60d46f_616f_4188_8ab4_19ac34caf9be_Class45 ( obj_2ff4cf09_9410_4392_80c2_9fb44edaedf9 o )  ) ) ( type_1e60d46f_616f_4188_8ab4_19ac34caf9be_Class12 ( obj_2ff4cf09_9410_4392_80c2_9fb44edaedf9 o )  ) ) ( type_1e60d46f_616f_4188_8ab4_19ac34caf9be_Class33 ( obj_2ff4cf09_9410_4392_80c2_9fb44edaedf9 o )  ) ) ( type_1e60d46f_616f_4188_8ab4_19ac34caf9be_Class22 ( obj_2ff4cf09_9410_4392_80c2_9fb44edaedf9 o )  ) ) ( type_1e60d46f_616f_4188_8ab4_19ac34caf9be_Class29 ( obj_2ff4cf09_9410_4392_80c2_9fb44edaedf9 o )  ) ) ( type_1e60d46f_616f_4188_8ab4_19ac34caf9be_Class39 ( obj_2ff4cf09_9410_4392_80c2_9fb44edaedf9 o )  ) ) ( type_1e60d46f_616f_4188_8ab4_19ac34caf9be_Class41 ( obj_2ff4cf09_9410_4392_80c2_9fb44edaedf9 o )  ) )):named c51))
(assert (! (exists ((o Int)) ( type_1e60d46f_616f_4188_8ab4_19ac34caf9be_Class6 ( obj_2ff4cf09_9410_4392_80c2_9fb44edaedf9 o )  ) ):named c52))
(assert (! (exists ((o Int)) (and (and (and (and (and (and (and (and (and ( type_1e60d46f_616f_4188_8ab4_19ac34caf9be_Class7 ( obj_2ff4cf09_9410_4392_80c2_9fb44edaedf9 o )  )  ( type_1e60d46f_616f_4188_8ab4_19ac34caf9be_Class45 ( obj_2ff4cf09_9410_4392_80c2_9fb44edaedf9 o )  ) ) ( type_1e60d46f_616f_4188_8ab4_19ac34caf9be_Class12 ( obj_2ff4cf09_9410_4392_80c2_9fb44edaedf9 o )  ) ) ( type_1e60d46f_616f_4188_8ab4_19ac34caf9be_Class55 ( obj_2ff4cf09_9410_4392_80c2_9fb44edaedf9 o )  ) ) ( type_1e60d46f_616f_4188_8ab4_19ac34caf9be_Class33 ( obj_2ff4cf09_9410_4392_80c2_9fb44edaedf9 o )  ) ) ( type_1e60d46f_616f_4188_8ab4_19ac34caf9be_Class22 ( obj_2ff4cf09_9410_4392_80c2_9fb44edaedf9 o )  ) ) ( type_1e60d46f_616f_4188_8ab4_19ac34caf9be_Class29 ( obj_2ff4cf09_9410_4392_80c2_9fb44edaedf9 o )  ) ) ( type_1e60d46f_616f_4188_8ab4_19ac34caf9be_Class39 ( obj_2ff4cf09_9410_4392_80c2_9fb44edaedf9 o )  ) ) ( type_1e60d46f_616f_4188_8ab4_19ac34caf9be_Class50 ( obj_2ff4cf09_9410_4392_80c2_9fb44edaedf9 o )  ) ) ( type_1e60d46f_616f_4188_8ab4_19ac34caf9be_Class41 ( obj_2ff4cf09_9410_4392_80c2_9fb44edaedf9 o )  ) )):named c53))
(assert (! (exists ((o Int)) (and ( type_1e60d46f_616f_4188_8ab4_19ac34caf9be_Class8 ( obj_2ff4cf09_9410_4392_80c2_9fb44edaedf9 o )  )  ( type_1e60d46f_616f_4188_8ab4_19ac34caf9be_Class39 ( obj_2ff4cf09_9410_4392_80c2_9fb44edaedf9 o )  ) )):named c54))
(assert (! (exists ((o Int)) ( type_1e60d46f_616f_4188_8ab4_19ac34caf9be_Class9 ( obj_2ff4cf09_9410_4392_80c2_9fb44edaedf9 o )  ) ):named c55))

 ;end of formula 